(set-info :smt-lib-version 2.6)
(set-logic QF_LRA)
(set-info :source |
Fully parameterized specification and verification of a synchronizer   
circuit modeling metastability at various levels of refinement.     
A paper describing this specification, to be published in Designing     
Correct Circuits (DCC), 2006, is available from the authors.            

Geoffrey Brown, Indiana University <geobrown@cs.indiana.edu>
Lee Pike, Galois Connections, Inc. <leepike@galois.com>

Translated into CVC format by Leonardo de Moura.

This benchmark was automatically translated into SMT-LIB format from
CVC format using CVC Lite

|)
(set-info :category "industrial")
(set-info :status sat)
(declare-fun x_0 () Bool)
(declare-fun x_1 () Bool)
(declare-fun x_2 () Real)
(declare-fun x_3 () Real)
(declare-fun x_4 () Bool)
(declare-fun x_5 () Bool)
(declare-fun x_6 () Real)
(declare-fun x_7 () Real)
(declare-fun x_8 () Bool)
(declare-fun x_9 () Bool)
(declare-fun x_10 () Real)
(declare-fun x_11 () Real)
(declare-fun x_12 () Bool)
(declare-fun x_13 () Bool)
(declare-fun x_14 () Real)
(declare-fun x_15 () Real)
(declare-fun x_16 () Bool)
(declare-fun x_17 () Bool)
(declare-fun x_18 () Real)
(declare-fun x_19 () Real)
(declare-fun x_20 () Bool)
(declare-fun x_21 () Bool)
(declare-fun x_22 () Real)
(declare-fun x_23 () Real)
(declare-fun x_24 () Bool)
(declare-fun x_25 () Bool)
(declare-fun x_26 () Real)
(declare-fun x_27 () Real)
(declare-fun x_28 () Bool)
(declare-fun x_29 () Bool)
(declare-fun x_30 () Real)
(declare-fun x_31 () Real)
(declare-fun x_32 () Bool)
(declare-fun x_33 () Bool)
(declare-fun x_34 () Real)
(declare-fun x_35 () Real)
(declare-fun x_36 () Bool)
(declare-fun x_37 () Bool)
(declare-fun x_38 () Real)
(declare-fun x_39 () Real)
(declare-fun x_40 () Bool)
(declare-fun x_41 () Bool)
(declare-fun x_42 () Bool)
(declare-fun x_43 () Bool)
(declare-fun x_44 () Real)
(declare-fun x_45 () Real)
(declare-fun x_46 () Real)
(declare-fun x_47 () Real)
(declare-fun x_48 () Bool)
(declare-fun x_49 () Bool)
(declare-fun x_50 () Bool)
(declare-fun x_51 () Bool)
(declare-fun x_52 () Real)
(declare-fun x_53 () Real)
(declare-fun x_54 () Real)
(declare-fun x_55 () Real)
(declare-fun x_56 () Bool)
(declare-fun x_57 () Bool)
(declare-fun x_58 () Bool)
(declare-fun x_59 () Bool)
(declare-fun x_60 () Real)
(declare-fun x_61 () Real)
(declare-fun x_62 () Real)
(declare-fun x_63 () Real)
(declare-fun x_64 () Bool)
(declare-fun x_65 () Bool)
(declare-fun x_66 () Bool)
(declare-fun x_67 () Bool)
(declare-fun x_68 () Real)
(declare-fun x_69 () Real)
(declare-fun x_70 () Real)
(declare-fun x_71 () Real)
(declare-fun x_72 () Bool)
(declare-fun x_73 () Bool)
(declare-fun x_74 () Bool)
(declare-fun x_75 () Bool)
(declare-fun x_76 () Real)
(declare-fun x_77 () Real)
(declare-fun x_78 () Real)
(declare-fun x_79 () Real)
(declare-fun x_80 () Bool)
(declare-fun x_81 () Bool)
(declare-fun x_82 () Bool)
(declare-fun x_83 () Bool)
(declare-fun x_84 () Real)
(declare-fun x_85 () Real)
(declare-fun x_86 () Real)
(declare-fun x_87 () Real)
(declare-fun x_88 () Bool)
(declare-fun x_89 () Bool)
(declare-fun x_90 () Bool)
(declare-fun x_91 () Bool)
(declare-fun x_92 () Real)
(declare-fun x_93 () Real)
(declare-fun x_94 () Real)
(declare-fun x_95 () Real)
(declare-fun x_96 () Bool)
(declare-fun x_97 () Bool)
(declare-fun x_98 () Bool)
(declare-fun x_99 () Bool)
(declare-fun x_100 () Real)
(declare-fun x_101 () Real)
(declare-fun x_102 () Real)
(declare-fun x_103 () Real)
(declare-fun x_104 () Bool)
(declare-fun x_105 () Bool)
(declare-fun x_106 () Bool)
(declare-fun x_107 () Bool)
(declare-fun x_108 () Real)
(declare-fun x_109 () Real)
(declare-fun x_110 () Real)
(declare-fun x_111 () Real)
(declare-fun x_112 () Bool)
(declare-fun x_113 () Bool)
(declare-fun x_114 () Bool)
(declare-fun x_115 () Bool)
(declare-fun x_116 () Real)
(declare-fun x_117 () Real)
(declare-fun x_118 () Real)
(declare-fun x_119 () Real)
(declare-fun x_120 () Bool)
(declare-fun x_121 () Bool)
(declare-fun x_122 () Bool)
(declare-fun x_123 () Bool)
(declare-fun x_124 () Bool)
(declare-fun x_125 () Bool)
(declare-fun x_126 () Real)
(declare-fun x_127 () Real)
(declare-fun x_128 () Real)
(declare-fun x_129 () Real)
(declare-fun x_130 () Real)
(declare-fun x_131 () Real)
(declare-fun x_132 () Real)
(declare-fun x_133 () Real)
(declare-fun x_134 () Real)
(declare-fun x_135 () Real)
(declare-fun x_136 () Real)
(declare-fun x_137 () Real)
(declare-fun x_138 () Real)
(declare-fun x_139 () Real)
(declare-fun x_140 () Real)
(declare-fun x_141 () Real)
(declare-fun x_142 () Real)
(declare-fun x_143 () Real)
(declare-fun x_144 () Real)
(declare-fun x_145 () Real)
(declare-fun x_146 () Real)
(declare-fun x_147 () Real)
(declare-fun x_148 () Real)
(declare-fun x_149 () Real)
(declare-fun x_150 () Real)
(declare-fun x_151 () Real)
(declare-fun x_152 () Real)
(declare-fun x_153 () Real)
(declare-fun x_154 () Real)
(declare-fun x_155 () Real)
(declare-fun x_156 () Real)
(declare-fun x_157 () Real)
(declare-fun x_158 () Real)
(declare-fun x_159 () Real)
(declare-fun x_160 () Real)
(declare-fun x_161 () Real)
(declare-fun x_162 () Real)
(declare-fun x_163 () Real)
(declare-fun x_164 () Real)
(declare-fun x_165 () Real)
(declare-fun x_166 () Real)
(declare-fun x_167 () Real)
(declare-fun x_168 () Real)
(declare-fun x_169 () Real)
(declare-fun x_170 () Real)
(declare-fun x_171 () Real)
(declare-fun x_172 () Real)
(declare-fun x_173 () Real)
(declare-fun x_174 () Real)
(declare-fun x_175 () Real)
(declare-fun x_176 () Real)
(declare-fun x_177 () Real)
(declare-fun x_178 () Real)
(declare-fun x_179 () Real)
(declare-fun x_180 () Real)
(declare-fun x_181 () Real)
(declare-fun x_182 () Real)
(declare-fun x_183 () Real)
(declare-fun x_184 () Real)
(declare-fun x_185 () Real)
(declare-fun x_186 () Real)
(declare-fun x_187 () Real)
(declare-fun x_188 () Real)
(declare-fun x_189 () Real)
(declare-fun x_190 () Real)
(declare-fun x_191 () Real)
(declare-fun x_192 () Real)
(declare-fun x_193 () Real)
(declare-fun x_194 () Real)
(declare-fun x_195 () Real)
(declare-fun x_196 () Real)
(assert (let ((?v_133 (= x_53 x_45)) (?v_134 (= x_46 x_54)) (?v_135 (= x_55 x_47)) (?v_131 (= x_44 x_52))) (let ((?v_136 (not ?v_131)) (?v_139 (= x_130 x_131)) (?v_127 (= x_48 x_40)) (?v_128 (= x_7 x_3)) (?v_132 (ite (<= x_46 x_44) x_46 x_44)) (?v_126 (ite (<= x_44 x_46) x_44 x_46)) (?v_119 (= x_61 x_53)) (?v_120 (= x_54 x_62)) (?v_121 (= x_63 x_55)) (?v_117 (= x_52 x_60))) (let ((?v_122 (not ?v_117)) (?v_125 (= x_141 x_130)) (?v_113 (= x_56 x_48)) (?v_114 (= x_11 x_7)) (?v_118 (ite (<= x_54 x_52) x_54 x_52)) (?v_112 (ite (<= x_52 x_54) x_52 x_54)) (?v_105 (= x_69 x_61)) (?v_106 (= x_62 x_70)) (?v_107 (= x_71 x_63)) (?v_103 (= x_60 x_68))) (let ((?v_108 (not ?v_103)) (?v_111 (= x_147 x_141)) (?v_99 (= x_64 x_56)) (?v_100 (= x_15 x_11)) (?v_104 (ite (<= x_62 x_60) x_62 x_60)) (?v_98 (ite (<= x_60 x_62) x_60 x_62)) (?v_91 (= x_77 x_69)) (?v_92 (= x_70 x_78)) (?v_93 (= x_79 x_71)) (?v_89 (= x_68 x_76))) (let ((?v_94 (not ?v_89)) (?v_97 (= x_153 x_147)) (?v_85 (= x_72 x_64)) (?v_86 (= x_19 x_15)) (?v_90 (ite (<= x_70 x_68) x_70 x_68)) (?v_84 (ite (<= x_68 x_70) x_68 x_70)) (?v_77 (= x_85 x_77)) (?v_78 (= x_78 x_86)) (?v_79 (= x_87 x_79)) (?v_75 (= x_76 x_84))) (let ((?v_80 (not ?v_75)) (?v_83 (= x_159 x_153)) (?v_71 (= x_80 x_72)) (?v_72 (= x_23 x_19)) (?v_76 (ite (<= x_78 x_76) x_78 x_76)) (?v_70 (ite (<= x_76 x_78) x_76 x_78)) (?v_63 (= x_93 x_85)) (?v_64 (= x_86 x_94)) (?v_65 (= x_95 x_87)) (?v_61 (= x_84 x_92))) (let ((?v_66 (not ?v_61)) (?v_69 (= x_165 x_159)) (?v_57 (= x_88 x_80)) (?v_58 (= x_27 x_23)) (?v_62 (ite (<= x_86 x_84) x_86 x_84)) (?v_56 (ite (<= x_84 x_86) x_84 x_86)) (?v_49 (= x_101 x_93)) (?v_50 (= x_94 x_102)) (?v_51 (= x_103 x_95)) (?v_47 (= x_92 x_100))) (let ((?v_52 (not ?v_47)) (?v_55 (= x_171 x_165)) (?v_43 (= x_96 x_88)) (?v_44 (= x_31 x_27)) (?v_48 (ite (<= x_94 x_92) x_94 x_92)) (?v_42 (ite (<= x_92 x_94) x_92 x_94)) (?v_35 (= x_109 x_101)) (?v_36 (= x_102 x_110)) (?v_37 (= x_111 x_103)) (?v_33 (= x_100 x_108))) (let ((?v_38 (not ?v_33)) (?v_41 (= x_177 x_171)) (?v_29 (= x_104 x_96)) (?v_30 (= x_35 x_31)) (?v_34 (ite (<= x_102 x_100) x_102 x_100)) (?v_28 (ite (<= x_100 x_102) x_100 x_102)) (?v_21 (= x_117 x_109)) (?v_22 (= x_110 x_118)) (?v_23 (= x_119 x_111)) (?v_19 (= x_108 x_116))) (let ((?v_24 (not ?v_19)) (?v_27 (= x_183 x_177)) (?v_15 (= x_112 x_104)) (?v_16 (= x_39 x_35)) (?v_20 (ite (<= x_110 x_108) x_110 x_108)) (?v_14 (ite (<= x_108 x_110) x_108 x_110)) (?v_7 (= x_127 x_117)) (?v_8 (= x_118 x_128)) (?v_9 (= x_129 x_119)) (?v_5 (= x_116 x_126))) (let ((?v_10 (not ?v_5)) (?v_13 (= x_189 x_183)) (?v_1 (= x_120 x_112)) (?v_2 (= x_190 x_39)) (?v_6 (ite (<= x_118 x_116) x_118 x_116)) (?v_0 (ite (<= x_116 x_118) x_116 x_118)) (?v_140 (xor x_122 x_123)) (?v_3 (not x_112)) (?v_17 (not x_104)) (?v_31 (not x_96)) (?v_45 (not x_88)) (?v_59 (not x_80)) (?v_73 (not x_72)) (?v_87 (not x_64)) (?v_101 (not x_56)) (?v_115 (not x_48)) (?v_129 (not x_40)) (?v_4 (= x_123 x_37)) (?v_12 (= x_39 x_190)) (?v_18 (= x_37 x_33)) (?v_26 (= x_35 x_39)) (?v_32 (= x_33 x_29)) (?v_40 (= x_31 x_35)) (?v_46 (= x_29 x_25)) (?v_54 (= x_27 x_31)) (?v_60 (= x_25 x_21)) (?v_68 (= x_23 x_27)) (?v_74 (= x_21 x_17)) (?v_82 (= x_19 x_23)) (?v_88 (= x_17 x_13)) (?v_96 (= x_15 x_19)) (?v_102 (= x_13 x_9)) (?v_110 (= x_11 x_15)) (?v_116 (= x_9 x_5)) (?v_124 (= x_7 x_11)) (?v_130 (= x_5 x_1)) (?v_138 (= x_3 x_7))) (let ((?v_11 (+ ?v_6 x_134)) (?v_25 (+ ?v_20 x_134)) (?v_39 (+ ?v_34 x_134)) (?v_53 (+ ?v_48 x_134)) (?v_67 (+ ?v_62 x_134)) (?v_81 (+ ?v_76 x_134)) (?v_95 (+ ?v_90 x_134)) (?v_109 (+ ?v_104 x_134)) (?v_123 (+ ?v_118 x_134)) (?v_137 (+ ?v_132 x_134))) (and (and (and (and (and (and (and (and (and (and (and (and (and (and (and (and (and (and (and (and (and (and (and (and (and (and (and (and (and (and (and (and (and (and (and (and (and (and (and (and (and (and (and (and (and (and (and (and (and (and (and (and (and (and (and (and (and (and (and (and (and (and (and (and (and (and (and (and (and (and (> x_132 0) (> x_133 0)) (>= x_134 0)) (< x_134 x_132)) (< x_134 x_133)) (>= x_139 0)) (< x_139 x_132)) (< x_139 x_133)) (or (= x_36 x_37) (= x_38 x_39))) (or (= x_32 x_33) (= x_34 x_35))) (or (= x_28 x_29) (= x_30 x_31))) (or (= x_24 x_25) (= x_26 x_27))) (or (= x_20 x_21) (= x_22 x_23))) (or (= x_16 x_17) (= x_18 x_19))) (or (= x_12 x_13) (= x_14 x_15))) (or (= x_8 x_9) (= x_10 x_11))) (or (= x_4 x_5) (= x_6 x_7))) (or (= x_0 x_1) (= x_2 x_3))) (<= (+ (+ (+ (+ (+ (+ (+ (ite (xor x_120 x_121) 1 0) (ite (xor x_121 x_122) 1 0)) (ite ?v_140 1 0)) (ite (xor x_123 x_124) 1 0)) (ite (xor x_124 x_125) 1 0)) (ite (xor x_125 (not x_120)) 1 0)) (ite (and (= x_120 x_121) (< x_126 x_127)) 1 0)) (ite (and (= x_123 x_124) (< x_128 x_129)) 1 0)) 1)) (<= (+ (+ (+ (+ (+ (+ (+ (ite (xor x_112 x_113) 1 0) (ite (xor x_113 x_36) 1 0)) (ite (xor x_36 x_37) 1 0)) (ite (xor x_37 x_114) 1 0)) (ite (xor x_114 x_115) 1 0)) (ite (xor x_115 ?v_3) 1 0)) (ite (and (= x_112 x_113) (< x_116 x_117)) 1 0)) (ite (and (= x_37 x_114) (< x_118 x_119)) 1 0)) 1)) (<= (+ (+ (+ (+ (+ (+ (+ (ite (xor x_104 x_105) 1 0) (ite (xor x_105 x_32) 1 0)) (ite (xor x_32 x_33) 1 0)) (ite (xor x_33 x_106) 1 0)) (ite (xor x_106 x_107) 1 0)) (ite (xor x_107 ?v_17) 1 0)) (ite (and (= x_104 x_105) (< x_108 x_109)) 1 0)) (ite (and (= x_33 x_106) (< x_110 x_111)) 1 0)) 1)) (<= (+ (+ (+ (+ (+ (+ (+ (ite (xor x_96 x_97) 1 0) (ite (xor x_97 x_28) 1 0)) (ite (xor x_28 x_29) 1 0)) (ite (xor x_29 x_98) 1 0)) (ite (xor x_98 x_99) 1 0)) (ite (xor x_99 ?v_31) 1 0)) (ite (and (= x_96 x_97) (< x_100 x_101)) 1 0)) (ite (and (= x_29 x_98) (< x_102 x_103)) 1 0)) 1)) (<= (+ (+ (+ (+ (+ (+ (+ (ite (xor x_88 x_89) 1 0) (ite (xor x_89 x_24) 1 0)) (ite (xor x_24 x_25) 1 0)) (ite (xor x_25 x_90) 1 0)) (ite (xor x_90 x_91) 1 0)) (ite (xor x_91 ?v_45) 1 0)) (ite (and (= x_88 x_89) (< x_92 x_93)) 1 0)) (ite (and (= x_25 x_90) (< x_94 x_95)) 1 0)) 1)) (<= (+ (+ (+ (+ (+ (+ (+ (ite (xor x_80 x_81) 1 0) (ite (xor x_81 x_20) 1 0)) (ite (xor x_20 x_21) 1 0)) (ite (xor x_21 x_82) 1 0)) (ite (xor x_82 x_83) 1 0)) (ite (xor x_83 ?v_59) 1 0)) (ite (and (= x_80 x_81) (< x_84 x_85)) 1 0)) (ite (and (= x_21 x_82) (< x_86 x_87)) 1 0)) 1)) (<= (+ (+ (+ (+ (+ (+ (+ (ite (xor x_72 x_73) 1 0) (ite (xor x_73 x_16) 1 0)) (ite (xor x_16 x_17) 1 0)) (ite (xor x_17 x_74) 1 0)) (ite (xor x_74 x_75) 1 0)) (ite (xor x_75 ?v_73) 1 0)) (ite (and (= x_72 x_73) (< x_76 x_77)) 1 0)) (ite (and (= x_17 x_74) (< x_78 x_79)) 1 0)) 1)) (<= (+ (+ (+ (+ (+ (+ (+ (ite (xor x_64 x_65) 1 0) (ite (xor x_65 x_12) 1 0)) (ite (xor x_12 x_13) 1 0)) (ite (xor x_13 x_66) 1 0)) (ite (xor x_66 x_67) 1 0)) (ite (xor x_67 ?v_87) 1 0)) (ite (and (= x_64 x_65) (< x_68 x_69)) 1 0)) (ite (and (= x_13 x_66) (< x_70 x_71)) 1 0)) 1)) (<= (+ (+ (+ (+ (+ (+ (+ (ite (xor x_56 x_57) 1 0) (ite (xor x_57 x_8) 1 0)) (ite (xor x_8 x_9) 1 0)) (ite (xor x_9 x_58) 1 0)) (ite (xor x_58 x_59) 1 0)) (ite (xor x_59 ?v_101) 1 0)) (ite (and (= x_56 x_57) (< x_60 x_61)) 1 0)) (ite (and (= x_9 x_58) (< x_62 x_63)) 1 0)) 1)) (<= (+ (+ (+ (+ (+ (+ (+ (ite (xor x_48 x_49) 1 0) (ite (xor x_49 x_4) 1 0)) (ite (xor x_4 x_5) 1 0)) (ite (xor x_5 x_50) 1 0)) (ite (xor x_50 x_51) 1 0)) (ite (xor x_51 ?v_115) 1 0)) (ite (and (= x_48 x_49) (< x_52 x_53)) 1 0)) (ite (and (= x_5 x_50) (< x_54 x_55)) 1 0)) 1)) (<= (+ (+ (+ (+ (+ (+ (+ (ite (xor x_40 x_41) 1 0) (ite (xor x_41 x_0) 1 0)) (ite (xor x_0 x_1) 1 0)) (ite (xor x_1 x_42) 1 0)) (ite (xor x_42 x_43) 1 0)) (ite (xor x_43 ?v_129) 1 0)) (ite (and (= x_40 x_41) (< x_44 x_45)) 1 0)) (ite (and (= x_1 x_42) (< x_46 x_47)) 1 0)) 1)) (or (and (and (and (and (and (and (and (and (and (= x_191 0) (= x_122 x_113)) (= ?v_0 x_116)) (<= (+ ?v_0 x_132) x_126)) (or ?v_4 (= x_123 x_36))) (= x_124 x_114)) (= x_125 x_115)) (= x_128 x_118)) ?v_1) ?v_2) (and (and (and (and (and (and (and (and (and (= x_191 1) (= x_125 x_114)) (= ?v_0 x_118)) (<= (+ ?v_0 x_133) x_128)) (or (and (and (= x_192 0) ?v_1) ?v_2) (and (and (= x_192 1) (= x_112 x_115)) (= x_120 ?v_3)))) (= x_121 x_113)) (= x_122 x_36)) (= x_193 x_38)) (= x_126 x_116)) ?v_4))) (or (or (and (and (and (= x_194 0) ?v_10) (or (not (<= x_117 ?v_6)) (= x_121 x_112))) ?v_7) (and (and (and (= x_194 1) ?v_5) (xor x_112 x_120)) (= x_127 ?v_11))) (and (and (and (= x_194 2) ?v_5) (= x_112 x_120)) ?v_7))) (or (or (and (and (and (= x_195 0) (not ?v_8)) (or (not (<= x_119 ?v_0)) (= x_124 x_37))) ?v_9) (and (and (and (= x_195 1) ?v_8) (xor x_37 x_123)) (= x_129 (+ ?v_0 x_139)))) (and (and (and (= x_195 2) ?v_8) (= x_37 x_123)) ?v_9))) (or (or (and (and (and (= x_196 0) ?v_10) (or (not (<= x_183 ?v_6)) (= x_193 x_39))) ?v_13) (and (and (and (= x_196 1) ?v_5) (not ?v_12)) (= x_189 ?v_11))) (and (and (and (= x_196 2) ?v_5) ?v_12) ?v_13))) (or (and (and (and (and (and (and (and (and (and (= x_184 0) (= x_36 x_105)) (= ?v_14 x_108)) (<= (+ ?v_14 x_132) x_116)) (or ?v_18 (= x_37 x_32))) (= x_114 x_106)) (= x_115 x_107)) (= x_118 x_110)) ?v_15) ?v_16) (and (and (and (and (and (and (and (and (and (= x_184 1) (= x_115 x_106)) (= ?v_14 x_110)) (<= (+ ?v_14 x_133) x_118)) (or (and (and (= x_185 0) ?v_15) ?v_16) (and (and (= x_185 1) (= x_104 x_107)) (= x_112 ?v_17)))) (= x_113 x_105)) (= x_36 x_32)) (= x_38 x_34)) (= x_116 x_108)) ?v_18))) (or (or (and (and (and (= x_186 0) ?v_24) (or (not (<= x_109 ?v_20)) (= x_113 x_104))) ?v_21) (and (and (and (= x_186 1) ?v_19) (xor x_104 x_112)) (= x_117 ?v_25))) (and (and (and (= x_186 2) ?v_19) (= x_104 x_112)) ?v_21))) (or (or (and (and (and (= x_187 0) (not ?v_22)) (or (not (<= x_111 ?v_14)) (= x_114 x_33))) ?v_23) (and (and (and (= x_187 1) ?v_22) (xor x_33 x_37)) (= x_119 (+ ?v_14 x_139)))) (and (and (and (= x_187 2) ?v_22) (= x_33 x_37)) ?v_23))) (or (or (and (and (and (= x_188 0) ?v_24) (or (not (<= x_177 ?v_20)) (= x_38 x_35))) ?v_27) (and (and (and (= x_188 1) ?v_19) (not ?v_26)) (= x_183 ?v_25))) (and (and (and (= x_188 2) ?v_19) ?v_26) ?v_27))) (or (and (and (and (and (and (and (and (and (and (= x_178 0) (= x_32 x_97)) (= ?v_28 x_100)) (<= (+ ?v_28 x_132) x_108)) (or ?v_32 (= x_33 x_28))) (= x_106 x_98)) (= x_107 x_99)) (= x_110 x_102)) ?v_29) ?v_30) (and (and (and (and (and (and (and (and (and (= x_178 1) (= x_107 x_98)) (= ?v_28 x_102)) (<= (+ ?v_28 x_133) x_110)) (or (and (and (= x_179 0) ?v_29) ?v_30) (and (and (= x_179 1) (= x_96 x_99)) (= x_104 ?v_31)))) (= x_105 x_97)) (= x_32 x_28)) (= x_34 x_30)) (= x_108 x_100)) ?v_32))) (or (or (and (and (and (= x_180 0) ?v_38) (or (not (<= x_101 ?v_34)) (= x_105 x_96))) ?v_35) (and (and (and (= x_180 1) ?v_33) (xor x_96 x_104)) (= x_109 ?v_39))) (and (and (and (= x_180 2) ?v_33) (= x_96 x_104)) ?v_35))) (or (or (and (and (and (= x_181 0) (not ?v_36)) (or (not (<= x_103 ?v_28)) (= x_106 x_29))) ?v_37) (and (and (and (= x_181 1) ?v_36) (xor x_29 x_33)) (= x_111 (+ ?v_28 x_139)))) (and (and (and (= x_181 2) ?v_36) (= x_29 x_33)) ?v_37))) (or (or (and (and (and (= x_182 0) ?v_38) (or (not (<= x_171 ?v_34)) (= x_34 x_31))) ?v_41) (and (and (and (= x_182 1) ?v_33) (not ?v_40)) (= x_177 ?v_39))) (and (and (and (= x_182 2) ?v_33) ?v_40) ?v_41))) (or (and (and (and (and (and (and (and (and (and (= x_172 0) (= x_28 x_89)) (= ?v_42 x_92)) (<= (+ ?v_42 x_132) x_100)) (or ?v_46 (= x_29 x_24))) (= x_98 x_90)) (= x_99 x_91)) (= x_102 x_94)) ?v_43) ?v_44) (and (and (and (and (and (and (and (and (and (= x_172 1) (= x_99 x_90)) (= ?v_42 x_94)) (<= (+ ?v_42 x_133) x_102)) (or (and (and (= x_173 0) ?v_43) ?v_44) (and (and (= x_173 1) (= x_88 x_91)) (= x_96 ?v_45)))) (= x_97 x_89)) (= x_28 x_24)) (= x_30 x_26)) (= x_100 x_92)) ?v_46))) (or (or (and (and (and (= x_174 0) ?v_52) (or (not (<= x_93 ?v_48)) (= x_97 x_88))) ?v_49) (and (and (and (= x_174 1) ?v_47) (xor x_88 x_96)) (= x_101 ?v_53))) (and (and (and (= x_174 2) ?v_47) (= x_88 x_96)) ?v_49))) (or (or (and (and (and (= x_175 0) (not ?v_50)) (or (not (<= x_95 ?v_42)) (= x_98 x_25))) ?v_51) (and (and (and (= x_175 1) ?v_50) (xor x_25 x_29)) (= x_103 (+ ?v_42 x_139)))) (and (and (and (= x_175 2) ?v_50) (= x_25 x_29)) ?v_51))) (or (or (and (and (and (= x_176 0) ?v_52) (or (not (<= x_165 ?v_48)) (= x_30 x_27))) ?v_55) (and (and (and (= x_176 1) ?v_47) (not ?v_54)) (= x_171 ?v_53))) (and (and (and (= x_176 2) ?v_47) ?v_54) ?v_55))) (or (and (and (and (and (and (and (and (and (and (= x_166 0) (= x_24 x_81)) (= ?v_56 x_84)) (<= (+ ?v_56 x_132) x_92)) (or ?v_60 (= x_25 x_20))) (= x_90 x_82)) (= x_91 x_83)) (= x_94 x_86)) ?v_57) ?v_58) (and (and (and (and (and (and (and (and (and (= x_166 1) (= x_91 x_82)) (= ?v_56 x_86)) (<= (+ ?v_56 x_133) x_94)) (or (and (and (= x_167 0) ?v_57) ?v_58) (and (and (= x_167 1) (= x_80 x_83)) (= x_88 ?v_59)))) (= x_89 x_81)) (= x_24 x_20)) (= x_26 x_22)) (= x_92 x_84)) ?v_60))) (or (or (and (and (and (= x_168 0) ?v_66) (or (not (<= x_85 ?v_62)) (= x_89 x_80))) ?v_63) (and (and (and (= x_168 1) ?v_61) (xor x_80 x_88)) (= x_93 ?v_67))) (and (and (and (= x_168 2) ?v_61) (= x_80 x_88)) ?v_63))) (or (or (and (and (and (= x_169 0) (not ?v_64)) (or (not (<= x_87 ?v_56)) (= x_90 x_21))) ?v_65) (and (and (and (= x_169 1) ?v_64) (xor x_21 x_25)) (= x_95 (+ ?v_56 x_139)))) (and (and (and (= x_169 2) ?v_64) (= x_21 x_25)) ?v_65))) (or (or (and (and (and (= x_170 0) ?v_66) (or (not (<= x_159 ?v_62)) (= x_26 x_23))) ?v_69) (and (and (and (= x_170 1) ?v_61) (not ?v_68)) (= x_165 ?v_67))) (and (and (and (= x_170 2) ?v_61) ?v_68) ?v_69))) (or (and (and (and (and (and (and (and (and (and (= x_160 0) (= x_20 x_73)) (= ?v_70 x_76)) (<= (+ ?v_70 x_132) x_84)) (or ?v_74 (= x_21 x_16))) (= x_82 x_74)) (= x_83 x_75)) (= x_86 x_78)) ?v_71) ?v_72) (and (and (and (and (and (and (and (and (and (= x_160 1) (= x_83 x_74)) (= ?v_70 x_78)) (<= (+ ?v_70 x_133) x_86)) (or (and (and (= x_161 0) ?v_71) ?v_72) (and (and (= x_161 1) (= x_72 x_75)) (= x_80 ?v_73)))) (= x_81 x_73)) (= x_20 x_16)) (= x_22 x_18)) (= x_84 x_76)) ?v_74))) (or (or (and (and (and (= x_162 0) ?v_80) (or (not (<= x_77 ?v_76)) (= x_81 x_72))) ?v_77) (and (and (and (= x_162 1) ?v_75) (xor x_72 x_80)) (= x_85 ?v_81))) (and (and (and (= x_162 2) ?v_75) (= x_72 x_80)) ?v_77))) (or (or (and (and (and (= x_163 0) (not ?v_78)) (or (not (<= x_79 ?v_70)) (= x_82 x_17))) ?v_79) (and (and (and (= x_163 1) ?v_78) (xor x_17 x_21)) (= x_87 (+ ?v_70 x_139)))) (and (and (and (= x_163 2) ?v_78) (= x_17 x_21)) ?v_79))) (or (or (and (and (and (= x_164 0) ?v_80) (or (not (<= x_153 ?v_76)) (= x_22 x_19))) ?v_83) (and (and (and (= x_164 1) ?v_75) (not ?v_82)) (= x_159 ?v_81))) (and (and (and (= x_164 2) ?v_75) ?v_82) ?v_83))) (or (and (and (and (and (and (and (and (and (and (= x_154 0) (= x_16 x_65)) (= ?v_84 x_68)) (<= (+ ?v_84 x_132) x_76)) (or ?v_88 (= x_17 x_12))) (= x_74 x_66)) (= x_75 x_67)) (= x_78 x_70)) ?v_85) ?v_86) (and (and (and (and (and (and (and (and (and (= x_154 1) (= x_75 x_66)) (= ?v_84 x_70)) (<= (+ ?v_84 x_133) x_78)) (or (and (and (= x_155 0) ?v_85) ?v_86) (and (and (= x_155 1) (= x_64 x_67)) (= x_72 ?v_87)))) (= x_73 x_65)) (= x_16 x_12)) (= x_18 x_14)) (= x_76 x_68)) ?v_88))) (or (or (and (and (and (= x_156 0) ?v_94) (or (not (<= x_69 ?v_90)) (= x_73 x_64))) ?v_91) (and (and (and (= x_156 1) ?v_89) (xor x_64 x_72)) (= x_77 ?v_95))) (and (and (and (= x_156 2) ?v_89) (= x_64 x_72)) ?v_91))) (or (or (and (and (and (= x_157 0) (not ?v_92)) (or (not (<= x_71 ?v_84)) (= x_74 x_13))) ?v_93) (and (and (and (= x_157 1) ?v_92) (xor x_13 x_17)) (= x_79 (+ ?v_84 x_139)))) (and (and (and (= x_157 2) ?v_92) (= x_13 x_17)) ?v_93))) (or (or (and (and (and (= x_158 0) ?v_94) (or (not (<= x_147 ?v_90)) (= x_18 x_15))) ?v_97) (and (and (and (= x_158 1) ?v_89) (not ?v_96)) (= x_153 ?v_95))) (and (and (and (= x_158 2) ?v_89) ?v_96) ?v_97))) (or (and (and (and (and (and (and (and (and (and (= x_148 0) (= x_12 x_57)) (= ?v_98 x_60)) (<= (+ ?v_98 x_132) x_68)) (or ?v_102 (= x_13 x_8))) (= x_66 x_58)) (= x_67 x_59)) (= x_70 x_62)) ?v_99) ?v_100) (and (and (and (and (and (and (and (and (and (= x_148 1) (= x_67 x_58)) (= ?v_98 x_62)) (<= (+ ?v_98 x_133) x_70)) (or (and (and (= x_149 0) ?v_99) ?v_100) (and (and (= x_149 1) (= x_56 x_59)) (= x_64 ?v_101)))) (= x_65 x_57)) (= x_12 x_8)) (= x_14 x_10)) (= x_68 x_60)) ?v_102))) (or (or (and (and (and (= x_150 0) ?v_108) (or (not (<= x_61 ?v_104)) (= x_65 x_56))) ?v_105) (and (and (and (= x_150 1) ?v_103) (xor x_56 x_64)) (= x_69 ?v_109))) (and (and (and (= x_150 2) ?v_103) (= x_56 x_64)) ?v_105))) (or (or (and (and (and (= x_151 0) (not ?v_106)) (or (not (<= x_63 ?v_98)) (= x_66 x_9))) ?v_107) (and (and (and (= x_151 1) ?v_106) (xor x_9 x_13)) (= x_71 (+ ?v_98 x_139)))) (and (and (and (= x_151 2) ?v_106) (= x_9 x_13)) ?v_107))) (or (or (and (and (and (= x_152 0) ?v_108) (or (not (<= x_141 ?v_104)) (= x_14 x_11))) ?v_111) (and (and (and (= x_152 1) ?v_103) (not ?v_110)) (= x_147 ?v_109))) (and (and (and (= x_152 2) ?v_103) ?v_110) ?v_111))) (or (and (and (and (and (and (and (and (and (and (= x_142 0) (= x_8 x_49)) (= ?v_112 x_52)) (<= (+ ?v_112 x_132) x_60)) (or ?v_116 (= x_9 x_4))) (= x_58 x_50)) (= x_59 x_51)) (= x_62 x_54)) ?v_113) ?v_114) (and (and (and (and (and (and (and (and (and (= x_142 1) (= x_59 x_50)) (= ?v_112 x_54)) (<= (+ ?v_112 x_133) x_62)) (or (and (and (= x_143 0) ?v_113) ?v_114) (and (and (= x_143 1) (= x_48 x_51)) (= x_56 ?v_115)))) (= x_57 x_49)) (= x_8 x_4)) (= x_10 x_6)) (= x_60 x_52)) ?v_116))) (or (or (and (and (and (= x_144 0) ?v_122) (or (not (<= x_53 ?v_118)) (= x_57 x_48))) ?v_119) (and (and (and (= x_144 1) ?v_117) (xor x_48 x_56)) (= x_61 ?v_123))) (and (and (and (= x_144 2) ?v_117) (= x_48 x_56)) ?v_119))) (or (or (and (and (and (= x_145 0) (not ?v_120)) (or (not (<= x_55 ?v_112)) (= x_58 x_5))) ?v_121) (and (and (and (= x_145 1) ?v_120) (xor x_5 x_9)) (= x_63 (+ ?v_112 x_139)))) (and (and (and (= x_145 2) ?v_120) (= x_5 x_9)) ?v_121))) (or (or (and (and (and (= x_146 0) ?v_122) (or (not (<= x_130 ?v_118)) (= x_10 x_7))) ?v_125) (and (and (and (= x_146 1) ?v_117) (not ?v_124)) (= x_141 ?v_123))) (and (and (and (= x_146 2) ?v_117) ?v_124) ?v_125))) (or (and (and (and (and (and (and (and (and (and (= x_135 0) (= x_4 x_41)) (= ?v_126 x_44)) (<= (+ ?v_126 x_132) x_52)) (or ?v_130 (= x_5 x_0))) (= x_50 x_42)) (= x_51 x_43)) (= x_54 x_46)) ?v_127) ?v_128) (and (and (and (and (and (and (and (and (and (= x_135 1) (= x_51 x_42)) (= ?v_126 x_46)) (<= (+ ?v_126 x_133) x_54)) (or (and (and (= x_136 0) ?v_127) ?v_128) (and (and (= x_136 1) (= x_40 x_43)) (= x_48 ?v_129)))) (= x_49 x_41)) (= x_4 x_0)) (= x_6 x_2)) (= x_52 x_44)) ?v_130))) (or (or (and (and (and (= x_137 0) ?v_136) (or (not (<= x_45 ?v_132)) (= x_49 x_40))) ?v_133) (and (and (and (= x_137 1) ?v_131) (xor x_40 x_48)) (= x_53 ?v_137))) (and (and (and (= x_137 2) ?v_131) (= x_40 x_48)) ?v_133))) (or (or (and (and (and (= x_138 0) (not ?v_134)) (or (not (<= x_47 ?v_126)) (= x_50 x_1))) ?v_135) (and (and (and (= x_138 1) ?v_134) (xor x_1 x_5)) (= x_55 (+ ?v_126 x_139)))) (and (and (and (= x_138 2) ?v_134) (= x_1 x_5)) ?v_135))) (or (or (and (and (and (= x_140 0) ?v_136) (or (not (<= x_131 ?v_132)) (= x_6 x_3))) ?v_139) (and (and (and (= x_140 1) ?v_131) (not ?v_138)) (= x_130 ?v_137))) (and (and (and (= x_140 2) ?v_131) ?v_138) ?v_139))) ?v_140) (not (= x_193 x_190))))))))))))))))
(check-sat)
(exit)
